sat
((x #x00000003)
 (r (fp #b0 #b10000000000 #x8000000000000))
 (q (fp #b0 #b10000000000 #x8000000000000)))
sat
((x #x00000003)
 (r (fp #b0 #b10000000000 #x8000000000000))
 (q (fp #b0 #b10000000000 #x8000000000000)))
